data;
param n:=50;
param w:=1 -196 2 27 3 109 4 -91 5 -207 6 -244 7 -81 8 -164 9 96 10 54 11 -218 12 57 13 125 14 -22 15 189 16 -75 17 -37 18 -55 19 79 20 -159 21 -190 22 187 23 203 24 35 25 -145 26 3 27 -118 28 -190 29 78 30 72 31 134 32 -172 33 59 34 61 35 56 36 -199 37 189 38 6 39 -159 40 218 41 116 42 117 43 103 44 -98 45 159 46 -39 47 143 48 177 49 222 50 -215;
